c commet
p cnf 125 1417
-28 3 0
-33 8 0
-38 13 0
-43 18 0
-48 23 0
-30 105 0
-35 110 0
-40 115 0
-45 120 0
-50 125 0
-27 52 0
-32 57 0
-37 62 0
-42 67 0
-47 72 0
-10 4 0
-15 9 0
-20 14 0
-25 19 0
-24 0
-4 54 0
-9 59 0
-14 64 0
-19 69 0
-24 74 0
-78 103 0
-83 108 0
-88 113 0
-93 118 0
-98 123 0
-1 76 0
-6 81 0
-11 86 0
-16 91 0
-21 96 0
63 0
26 0
-77 106 0
-82 101 111 0
-87 106 116 0
-92 111 121 0
-97 116 0
-102 81 0
-107 76 86 0
-112 81 91 0
-117 86 96 0
-122 91 0
-80 55 0
-85 60 0
-90 65 0
-95 70 0
-100 75 0
-29 79 0
-34 84 0
-39 89 0
-44 94 0
-49 99 0
-26 7 0
-31 2 12 0
-36 7 17 0
-41 12 22 0
-46 17 0
-77 56 0
-82 51 61 0
-87 56 66 0
-92 61 71 0
-97 66 0
1 2 3 4 5 0
1 2 3 -4 -5 0
1 2 -3 4 -5 0
1 2 -3 -4 5 0
1 2 -3 -4 -5 0
1 -2 3 4 -5 0
1 -2 3 -4 5 0
1 -2 3 -4 -5 0
1 -2 -3 4 5 0
1 -2 -3 4 -5 0
1 -2 -3 -4 5 0
1 -2 -3 -4 -5 0
-1 2 3 4 -5 0
-1 2 3 -4 5 0
-1 2 3 -4 -5 0
-1 2 -3 4 5 0
-1 2 -3 4 -5 0
-1 2 -3 -4 5 0
-1 2 -3 -4 -5 0
-1 -2 3 4 5 0
-1 -2 3 4 -5 0
-1 -2 3 -4 5 0
-1 -2 3 -4 -5 0
-1 -2 -3 4 5 0
-1 -2 -3 4 -5 0
-1 -2 -3 -4 5 0
-1 -2 -3 -4 -5 0
6 7 8 9 10 0
6 7 8 -9 -10 0
6 7 -8 9 -10 0
6 7 -8 -9 10 0
6 7 -8 -9 -10 0
6 -7 8 9 -10 0
6 -7 8 -9 10 0
6 -7 8 -9 -10 0
6 -7 -8 9 10 0
6 -7 -8 9 -10 0
6 -7 -8 -9 10 0
6 -7 -8 -9 -10 0
-6 7 8 9 -10 0
-6 7 8 -9 10 0
-6 7 8 -9 -10 0
-6 7 -8 9 10 0
-6 7 -8 9 -10 0
-6 7 -8 -9 10 0
-6 7 -8 -9 -10 0
-6 -7 8 9 10 0
-6 -7 8 9 -10 0
-6 -7 8 -9 10 0
-6 -7 8 -9 -10 0
-6 -7 -8 9 10 0
-6 -7 -8 9 -10 0
-6 -7 -8 -9 10 0
-6 -7 -8 -9 -10 0
11 12 13 14 15 0
11 12 13 -14 -15 0
11 12 -13 14 -15 0
11 12 -13 -14 15 0
11 12 -13 -14 -15 0
11 -12 13 14 -15 0
11 -12 13 -14 15 0
11 -12 13 -14 -15 0
11 -12 -13 14 15 0
11 -12 -13 14 -15 0
11 -12 -13 -14 15 0
11 -12 -13 -14 -15 0
-11 12 13 14 -15 0
-11 12 13 -14 15 0
-11 12 13 -14 -15 0
-11 12 -13 14 15 0
-11 12 -13 14 -15 0
-11 12 -13 -14 15 0
-11 12 -13 -14 -15 0
-11 -12 13 14 15 0
-11 -12 13 14 -15 0
-11 -12 13 -14 15 0
-11 -12 13 -14 -15 0
-11 -12 -13 14 15 0
-11 -12 -13 14 -15 0
-11 -12 -13 -14 15 0
-11 -12 -13 -14 -15 0
16 17 18 19 20 0
16 17 18 -19 -20 0
16 17 -18 19 -20 0
16 17 -18 -19 20 0
16 17 -18 -19 -20 0
16 -17 18 19 -20 0
16 -17 18 -19 20 0
16 -17 18 -19 -20 0
16 -17 -18 19 20 0
16 -17 -18 19 -20 0
16 -17 -18 -19 20 0
16 -17 -18 -19 -20 0
-16 17 18 19 -20 0
-16 17 18 -19 20 0
-16 17 18 -19 -20 0
-16 17 -18 19 20 0
-16 17 -18 19 -20 0
-16 17 -18 -19 20 0
-16 17 -18 -19 -20 0
-16 -17 18 19 20 0
-16 -17 18 19 -20 0
-16 -17 18 -19 20 0
-16 -17 18 -19 -20 0
-16 -17 -18 19 20 0
-16 -17 -18 19 -20 0
-16 -17 -18 -19 20 0
-16 -17 -18 -19 -20 0
21 22 23 24 25 0
21 22 23 -24 -25 0
21 22 -23 24 -25 0
21 22 -23 -24 25 0
21 22 -23 -24 -25 0
21 -22 23 24 -25 0
21 -22 23 -24 25 0
21 -22 23 -24 -25 0
21 -22 -23 24 25 0
21 -22 -23 24 -25 0
21 -22 -23 -24 25 0
21 -22 -23 -24 -25 0
-21 22 23 24 -25 0
-21 22 23 -24 25 0
-21 22 23 -24 -25 0
-21 22 -23 24 25 0
-21 22 -23 24 -25 0
-21 22 -23 -24 25 0
-21 22 -23 -24 -25 0
-21 -22 23 24 25 0
-21 -22 23 24 -25 0
-21 -22 23 -24 25 0
-21 -22 23 -24 -25 0
-21 -22 -23 24 25 0
-21 -22 -23 24 -25 0
-21 -22 -23 -24 25 0
-21 -22 -23 -24 -25 0
26 27 28 29 30 0
26 27 28 -29 -30 0
26 27 -28 29 -30 0
26 27 -28 -29 30 0
26 27 -28 -29 -30 0
26 -27 28 29 -30 0
26 -27 28 -29 30 0
26 -27 28 -29 -30 0
26 -27 -28 29 30 0
26 -27 -28 29 -30 0
26 -27 -28 -29 30 0
26 -27 -28 -29 -30 0
-26 27 28 29 -30 0
-26 27 28 -29 30 0
-26 27 28 -29 -30 0
-26 27 -28 29 30 0
-26 27 -28 29 -30 0
-26 27 -28 -29 30 0
-26 27 -28 -29 -30 0
-26 -27 28 29 30 0
-26 -27 28 29 -30 0
-26 -27 28 -29 30 0
-26 -27 28 -29 -30 0
-26 -27 -28 29 30 0
-26 -27 -28 29 -30 0
-26 -27 -28 -29 30 0
-26 -27 -28 -29 -30 0
31 32 33 34 35 0
31 32 33 -34 -35 0
31 32 -33 34 -35 0
31 32 -33 -34 35 0
31 32 -33 -34 -35 0
31 -32 33 34 -35 0
31 -32 33 -34 35 0
31 -32 33 -34 -35 0
31 -32 -33 34 35 0
31 -32 -33 34 -35 0
31 -32 -33 -34 35 0
31 -32 -33 -34 -35 0
-31 32 33 34 -35 0
-31 32 33 -34 35 0
-31 32 33 -34 -35 0
-31 32 -33 34 35 0
-31 32 -33 34 -35 0
-31 32 -33 -34 35 0
-31 32 -33 -34 -35 0
-31 -32 33 34 35 0
-31 -32 33 34 -35 0
-31 -32 33 -34 35 0
-31 -32 33 -34 -35 0
-31 -32 -33 34 35 0
-31 -32 -33 34 -35 0
-31 -32 -33 -34 35 0
-31 -32 -33 -34 -35 0
36 37 38 39 40 0
36 37 38 -39 -40 0
36 37 -38 39 -40 0
36 37 -38 -39 40 0
36 37 -38 -39 -40 0
36 -37 38 39 -40 0
36 -37 38 -39 40 0
36 -37 38 -39 -40 0
36 -37 -38 39 40 0
36 -37 -38 39 -40 0
36 -37 -38 -39 40 0
36 -37 -38 -39 -40 0
-36 37 38 39 -40 0
-36 37 38 -39 40 0
-36 37 38 -39 -40 0
-36 37 -38 39 40 0
-36 37 -38 39 -40 0
-36 37 -38 -39 40 0
-36 37 -38 -39 -40 0
-36 -37 38 39 40 0
-36 -37 38 39 -40 0
-36 -37 38 -39 40 0
-36 -37 38 -39 -40 0
-36 -37 -38 39 40 0
-36 -37 -38 39 -40 0
-36 -37 -38 -39 40 0
-36 -37 -38 -39 -40 0
41 42 43 44 45 0
41 42 43 -44 -45 0
41 42 -43 44 -45 0
41 42 -43 -44 45 0
41 42 -43 -44 -45 0
41 -42 43 44 -45 0
41 -42 43 -44 45 0
41 -42 43 -44 -45 0
41 -42 -43 44 45 0
41 -42 -43 44 -45 0
41 -42 -43 -44 45 0
41 -42 -43 -44 -45 0
-41 42 43 44 -45 0
-41 42 43 -44 45 0
-41 42 43 -44 -45 0
-41 42 -43 44 45 0
-41 42 -43 44 -45 0
-41 42 -43 -44 45 0
-41 42 -43 -44 -45 0
-41 -42 43 44 45 0
-41 -42 43 44 -45 0
-41 -42 43 -44 45 0
-41 -42 43 -44 -45 0
-41 -42 -43 44 45 0
-41 -42 -43 44 -45 0
-41 -42 -43 -44 45 0
-41 -42 -43 -44 -45 0
46 47 48 49 50 0
46 47 48 -49 -50 0
46 47 -48 49 -50 0
46 47 -48 -49 50 0
46 47 -48 -49 -50 0
46 -47 48 49 -50 0
46 -47 48 -49 50 0
46 -47 48 -49 -50 0
46 -47 -48 49 50 0
46 -47 -48 49 -50 0
46 -47 -48 -49 50 0
46 -47 -48 -49 -50 0
-46 47 48 49 -50 0
-46 47 48 -49 50 0
-46 47 48 -49 -50 0
-46 47 -48 49 50 0
-46 47 -48 49 -50 0
-46 47 -48 -49 50 0
-46 47 -48 -49 -50 0
-46 -47 48 49 50 0
-46 -47 48 49 -50 0
-46 -47 48 -49 50 0
-46 -47 48 -49 -50 0
-46 -47 -48 49 50 0
-46 -47 -48 49 -50 0
-46 -47 -48 -49 50 0
-46 -47 -48 -49 -50 0
51 52 53 54 55 0
51 52 53 -54 -55 0
51 52 -53 54 -55 0
51 52 -53 -54 55 0
51 52 -53 -54 -55 0
51 -52 53 54 -55 0
51 -52 53 -54 55 0
51 -52 53 -54 -55 0
51 -52 -53 54 55 0
51 -52 -53 54 -55 0
51 -52 -53 -54 55 0
51 -52 -53 -54 -55 0
-51 52 53 54 -55 0
-51 52 53 -54 55 0
-51 52 53 -54 -55 0
-51 52 -53 54 55 0
-51 52 -53 54 -55 0
-51 52 -53 -54 55 0
-51 52 -53 -54 -55 0
-51 -52 53 54 55 0
-51 -52 53 54 -55 0
-51 -52 53 -54 55 0
-51 -52 53 -54 -55 0
-51 -52 -53 54 55 0
-51 -52 -53 54 -55 0
-51 -52 -53 -54 55 0
-51 -52 -53 -54 -55 0
56 57 58 59 60 0
56 57 58 -59 -60 0
56 57 -58 59 -60 0
56 57 -58 -59 60 0
56 57 -58 -59 -60 0
56 -57 58 59 -60 0
56 -57 58 -59 60 0
56 -57 58 -59 -60 0
56 -57 -58 59 60 0
56 -57 -58 59 -60 0
56 -57 -58 -59 60 0
56 -57 -58 -59 -60 0
-56 57 58 59 -60 0
-56 57 58 -59 60 0
-56 57 58 -59 -60 0
-56 57 -58 59 60 0
-56 57 -58 59 -60 0
-56 57 -58 -59 60 0
-56 57 -58 -59 -60 0
-56 -57 58 59 60 0
-56 -57 58 59 -60 0
-56 -57 58 -59 60 0
-56 -57 58 -59 -60 0
-56 -57 -58 59 60 0
-56 -57 -58 59 -60 0
-56 -57 -58 -59 60 0
-56 -57 -58 -59 -60 0
61 62 63 64 65 0
61 62 63 -64 -65 0
61 62 -63 64 -65 0
61 62 -63 -64 65 0
61 62 -63 -64 -65 0
61 -62 63 64 -65 0
61 -62 63 -64 65 0
61 -62 63 -64 -65 0
61 -62 -63 64 65 0
61 -62 -63 64 -65 0
61 -62 -63 -64 65 0
61 -62 -63 -64 -65 0
-61 62 63 64 -65 0
-61 62 63 -64 65 0
-61 62 63 -64 -65 0
-61 62 -63 64 65 0
-61 62 -63 64 -65 0
-61 62 -63 -64 65 0
-61 62 -63 -64 -65 0
-61 -62 63 64 65 0
-61 -62 63 64 -65 0
-61 -62 63 -64 65 0
-61 -62 63 -64 -65 0
-61 -62 -63 64 65 0
-61 -62 -63 64 -65 0
-61 -62 -63 -64 65 0
-61 -62 -63 -64 -65 0
66 67 68 69 70 0
66 67 68 -69 -70 0
66 67 -68 69 -70 0
66 67 -68 -69 70 0
66 67 -68 -69 -70 0
66 -67 68 69 -70 0
66 -67 68 -69 70 0
66 -67 68 -69 -70 0
66 -67 -68 69 70 0
66 -67 -68 69 -70 0
66 -67 -68 -69 70 0
66 -67 -68 -69 -70 0
-66 67 68 69 -70 0
-66 67 68 -69 70 0
-66 67 68 -69 -70 0
-66 67 -68 69 70 0
-66 67 -68 69 -70 0
-66 67 -68 -69 70 0
-66 67 -68 -69 -70 0
-66 -67 68 69 70 0
-66 -67 68 69 -70 0
-66 -67 68 -69 70 0
-66 -67 68 -69 -70 0
-66 -67 -68 69 70 0
-66 -67 -68 69 -70 0
-66 -67 -68 -69 70 0
-66 -67 -68 -69 -70 0
71 72 73 74 75 0
71 72 73 -74 -75 0
71 72 -73 74 -75 0
71 72 -73 -74 75 0
71 72 -73 -74 -75 0
71 -72 73 74 -75 0
71 -72 73 -74 75 0
71 -72 73 -74 -75 0
71 -72 -73 74 75 0
71 -72 -73 74 -75 0
71 -72 -73 -74 75 0
71 -72 -73 -74 -75 0
-71 72 73 74 -75 0
-71 72 73 -74 75 0
-71 72 73 -74 -75 0
-71 72 -73 74 75 0
-71 72 -73 74 -75 0
-71 72 -73 -74 75 0
-71 72 -73 -74 -75 0
-71 -72 73 74 75 0
-71 -72 73 74 -75 0
-71 -72 73 -74 75 0
-71 -72 73 -74 -75 0
-71 -72 -73 74 75 0
-71 -72 -73 74 -75 0
-71 -72 -73 -74 75 0
-71 -72 -73 -74 -75 0
76 77 78 79 80 0
76 77 78 -79 -80 0
76 77 -78 79 -80 0
76 77 -78 -79 80 0
76 77 -78 -79 -80 0
76 -77 78 79 -80 0
76 -77 78 -79 80 0
76 -77 78 -79 -80 0
76 -77 -78 79 80 0
76 -77 -78 79 -80 0
76 -77 -78 -79 80 0
76 -77 -78 -79 -80 0
-76 77 78 79 -80 0
-76 77 78 -79 80 0
-76 77 78 -79 -80 0
-76 77 -78 79 80 0
-76 77 -78 79 -80 0
-76 77 -78 -79 80 0
-76 77 -78 -79 -80 0
-76 -77 78 79 80 0
-76 -77 78 79 -80 0
-76 -77 78 -79 80 0
-76 -77 78 -79 -80 0
-76 -77 -78 79 80 0
-76 -77 -78 79 -80 0
-76 -77 -78 -79 80 0
-76 -77 -78 -79 -80 0
81 82 83 84 85 0
81 82 83 -84 -85 0
81 82 -83 84 -85 0
81 82 -83 -84 85 0
81 82 -83 -84 -85 0
81 -82 83 84 -85 0
81 -82 83 -84 85 0
81 -82 83 -84 -85 0
81 -82 -83 84 85 0
81 -82 -83 84 -85 0
81 -82 -83 -84 85 0
81 -82 -83 -84 -85 0
-81 82 83 84 -85 0
-81 82 83 -84 85 0
-81 82 83 -84 -85 0
-81 82 -83 84 85 0
-81 82 -83 84 -85 0
-81 82 -83 -84 85 0
-81 82 -83 -84 -85 0
-81 -82 83 84 85 0
-81 -82 83 84 -85 0
-81 -82 83 -84 85 0
-81 -82 83 -84 -85 0
-81 -82 -83 84 85 0
-81 -82 -83 84 -85 0
-81 -82 -83 -84 85 0
-81 -82 -83 -84 -85 0
86 87 88 89 90 0
86 87 88 -89 -90 0
86 87 -88 89 -90 0
86 87 -88 -89 90 0
86 87 -88 -89 -90 0
86 -87 88 89 -90 0
86 -87 88 -89 90 0
86 -87 88 -89 -90 0
86 -87 -88 89 90 0
86 -87 -88 89 -90 0
86 -87 -88 -89 90 0
86 -87 -88 -89 -90 0
-86 87 88 89 -90 0
-86 87 88 -89 90 0
-86 87 88 -89 -90 0
-86 87 -88 89 90 0
-86 87 -88 89 -90 0
-86 87 -88 -89 90 0
-86 87 -88 -89 -90 0
-86 -87 88 89 90 0
-86 -87 88 89 -90 0
-86 -87 88 -89 90 0
-86 -87 88 -89 -90 0
-86 -87 -88 89 90 0
-86 -87 -88 89 -90 0
-86 -87 -88 -89 90 0
-86 -87 -88 -89 -90 0
91 92 93 94 95 0
91 92 93 -94 -95 0
91 92 -93 94 -95 0
91 92 -93 -94 95 0
91 92 -93 -94 -95 0
91 -92 93 94 -95 0
91 -92 93 -94 95 0
91 -92 93 -94 -95 0
91 -92 -93 94 95 0
91 -92 -93 94 -95 0
91 -92 -93 -94 95 0
91 -92 -93 -94 -95 0
-91 92 93 94 -95 0
-91 92 93 -94 95 0
-91 92 93 -94 -95 0
-91 92 -93 94 95 0
-91 92 -93 94 -95 0
-91 92 -93 -94 95 0
-91 92 -93 -94 -95 0
-91 -92 93 94 95 0
-91 -92 93 94 -95 0
-91 -92 93 -94 95 0
-91 -92 93 -94 -95 0
-91 -92 -93 94 95 0
-91 -92 -93 94 -95 0
-91 -92 -93 -94 95 0
-91 -92 -93 -94 -95 0
96 97 98 99 100 0
96 97 98 -99 -100 0
96 97 -98 99 -100 0
96 97 -98 -99 100 0
96 97 -98 -99 -100 0
96 -97 98 99 -100 0
96 -97 98 -99 100 0
96 -97 98 -99 -100 0
96 -97 -98 99 100 0
96 -97 -98 99 -100 0
96 -97 -98 -99 100 0
96 -97 -98 -99 -100 0
-96 97 98 99 -100 0
-96 97 98 -99 100 0
-96 97 98 -99 -100 0
-96 97 -98 99 100 0
-96 97 -98 99 -100 0
-96 97 -98 -99 100 0
-96 97 -98 -99 -100 0
-96 -97 98 99 100 0
-96 -97 98 99 -100 0
-96 -97 98 -99 100 0
-96 -97 98 -99 -100 0
-96 -97 -98 99 100 0
-96 -97 -98 99 -100 0
-96 -97 -98 -99 100 0
-96 -97 -98 -99 -100 0
101 102 103 104 105 0
101 102 103 -104 -105 0
101 102 -103 104 -105 0
101 102 -103 -104 105 0
101 102 -103 -104 -105 0
101 -102 103 104 -105 0
101 -102 103 -104 105 0
101 -102 103 -104 -105 0
101 -102 -103 104 105 0
101 -102 -103 104 -105 0
101 -102 -103 -104 105 0
101 -102 -103 -104 -105 0
-101 102 103 104 -105 0
-101 102 103 -104 105 0
-101 102 103 -104 -105 0
-101 102 -103 104 105 0
-101 102 -103 104 -105 0
-101 102 -103 -104 105 0
-101 102 -103 -104 -105 0
-101 -102 103 104 105 0
-101 -102 103 104 -105 0
-101 -102 103 -104 105 0
-101 -102 103 -104 -105 0
-101 -102 -103 104 105 0
-101 -102 -103 104 -105 0
-101 -102 -103 -104 105 0
-101 -102 -103 -104 -105 0
106 107 108 109 110 0
106 107 108 -109 -110 0
106 107 -108 109 -110 0
106 107 -108 -109 110 0
106 107 -108 -109 -110 0
106 -107 108 109 -110 0
106 -107 108 -109 110 0
106 -107 108 -109 -110 0
106 -107 -108 109 110 0
106 -107 -108 109 -110 0
106 -107 -108 -109 110 0
106 -107 -108 -109 -110 0
-106 107 108 109 -110 0
-106 107 108 -109 110 0
-106 107 108 -109 -110 0
-106 107 -108 109 110 0
-106 107 -108 109 -110 0
-106 107 -108 -109 110 0
-106 107 -108 -109 -110 0
-106 -107 108 109 110 0
-106 -107 108 109 -110 0
-106 -107 108 -109 110 0
-106 -107 108 -109 -110 0
-106 -107 -108 109 110 0
-106 -107 -108 109 -110 0
-106 -107 -108 -109 110 0
-106 -107 -108 -109 -110 0
111 112 113 114 115 0
111 112 113 -114 -115 0
111 112 -113 114 -115 0
111 112 -113 -114 115 0
111 112 -113 -114 -115 0
111 -112 113 114 -115 0
111 -112 113 -114 115 0
111 -112 113 -114 -115 0
111 -112 -113 114 115 0
111 -112 -113 114 -115 0
111 -112 -113 -114 115 0
111 -112 -113 -114 -115 0
-111 112 113 114 -115 0
-111 112 113 -114 115 0
-111 112 113 -114 -115 0
-111 112 -113 114 115 0
-111 112 -113 114 -115 0
-111 112 -113 -114 115 0
-111 112 -113 -114 -115 0
-111 -112 113 114 115 0
-111 -112 113 114 -115 0
-111 -112 113 -114 115 0
-111 -112 113 -114 -115 0
-111 -112 -113 114 115 0
-111 -112 -113 114 -115 0
-111 -112 -113 -114 115 0
-111 -112 -113 -114 -115 0
116 117 118 119 120 0
116 117 118 -119 -120 0
116 117 -118 119 -120 0
116 117 -118 -119 120 0
116 117 -118 -119 -120 0
116 -117 118 119 -120 0
116 -117 118 -119 120 0
116 -117 118 -119 -120 0
116 -117 -118 119 120 0
116 -117 -118 119 -120 0
116 -117 -118 -119 120 0
116 -117 -118 -119 -120 0
-116 117 118 119 -120 0
-116 117 118 -119 120 0
-116 117 118 -119 -120 0
-116 117 -118 119 120 0
-116 117 -118 119 -120 0
-116 117 -118 -119 120 0
-116 117 -118 -119 -120 0
-116 -117 118 119 120 0
-116 -117 118 119 -120 0
-116 -117 118 -119 120 0
-116 -117 118 -119 -120 0
-116 -117 -118 119 120 0
-116 -117 -118 119 -120 0
-116 -117 -118 -119 120 0
-116 -117 -118 -119 -120 0
121 122 123 124 125 0
121 122 123 -124 -125 0
121 122 -123 124 -125 0
121 122 -123 -124 125 0
121 122 -123 -124 -125 0
121 -122 123 124 -125 0
121 -122 123 -124 125 0
121 -122 123 -124 -125 0
121 -122 -123 124 125 0
121 -122 -123 124 -125 0
121 -122 -123 -124 125 0
121 -122 -123 -124 -125 0
-121 122 123 124 -125 0
-121 122 123 -124 125 0
-121 122 123 -124 -125 0
-121 122 -123 124 125 0
-121 122 -123 124 -125 0
-121 122 -123 -124 125 0
-121 122 -123 -124 -125 0
-121 -122 123 124 125 0
-121 -122 123 124 -125 0
-121 -122 123 -124 125 0
-121 -122 123 -124 -125 0
-121 -122 -123 124 125 0
-121 -122 -123 124 -125 0
-121 -122 -123 -124 125 0
-121 -122 -123 -124 -125 0
1 6 11 16 21 0
1 6 11 -16 -21 0
1 6 -11 16 -21 0
1 6 -11 -16 21 0
1 6 -11 -16 -21 0
1 -6 11 16 -21 0
1 -6 11 -16 21 0
1 -6 11 -16 -21 0
1 -6 -11 16 21 0
1 -6 -11 16 -21 0
1 -6 -11 -16 21 0
1 -6 -11 -16 -21 0
-1 6 11 16 -21 0
-1 6 11 -16 21 0
-1 6 11 -16 -21 0
-1 6 -11 16 21 0
-1 6 -11 16 -21 0
-1 6 -11 -16 21 0
-1 6 -11 -16 -21 0
-1 -6 11 16 21 0
-1 -6 11 16 -21 0
-1 -6 11 -16 21 0
-1 -6 11 -16 -21 0
-1 -6 -11 16 21 0
-1 -6 -11 16 -21 0
-1 -6 -11 -16 21 0
-1 -6 -11 -16 -21 0
2 7 12 17 22 0
2 7 12 -17 -22 0
2 7 -12 17 -22 0
2 7 -12 -17 22 0
2 7 -12 -17 -22 0
2 -7 12 17 -22 0
2 -7 12 -17 22 0
2 -7 12 -17 -22 0
2 -7 -12 17 22 0
2 -7 -12 17 -22 0
2 -7 -12 -17 22 0
2 -7 -12 -17 -22 0
-2 7 12 17 -22 0
-2 7 12 -17 22 0
-2 7 12 -17 -22 0
-2 7 -12 17 22 0
-2 7 -12 17 -22 0
-2 7 -12 -17 22 0
-2 7 -12 -17 -22 0
-2 -7 12 17 22 0
-2 -7 12 17 -22 0
-2 -7 12 -17 22 0
-2 -7 12 -17 -22 0
-2 -7 -12 17 22 0
-2 -7 -12 17 -22 0
-2 -7 -12 -17 22 0
-2 -7 -12 -17 -22 0
3 8 13 18 23 0
3 8 13 -18 -23 0
3 8 -13 18 -23 0
3 8 -13 -18 23 0
3 8 -13 -18 -23 0
3 -8 13 18 -23 0
3 -8 13 -18 23 0
3 -8 13 -18 -23 0
3 -8 -13 18 23 0
3 -8 -13 18 -23 0
3 -8 -13 -18 23 0
3 -8 -13 -18 -23 0
-3 8 13 18 -23 0
-3 8 13 -18 23 0
-3 8 13 -18 -23 0
-3 8 -13 18 23 0
-3 8 -13 18 -23 0
-3 8 -13 -18 23 0
-3 8 -13 -18 -23 0
-3 -8 13 18 23 0
-3 -8 13 18 -23 0
-3 -8 13 -18 23 0
-3 -8 13 -18 -23 0
-3 -8 -13 18 23 0
-3 -8 -13 18 -23 0
-3 -8 -13 -18 23 0
-3 -8 -13 -18 -23 0
4 9 14 19 24 0
4 9 14 -19 -24 0
4 9 -14 19 -24 0
4 9 -14 -19 24 0
4 9 -14 -19 -24 0
4 -9 14 19 -24 0
4 -9 14 -19 24 0
4 -9 14 -19 -24 0
4 -9 -14 19 24 0
4 -9 -14 19 -24 0
4 -9 -14 -19 24 0
4 -9 -14 -19 -24 0
-4 9 14 19 -24 0
-4 9 14 -19 24 0
-4 9 14 -19 -24 0
-4 9 -14 19 24 0
-4 9 -14 19 -24 0
-4 9 -14 -19 24 0
-4 9 -14 -19 -24 0
-4 -9 14 19 24 0
-4 -9 14 19 -24 0
-4 -9 14 -19 24 0
-4 -9 14 -19 -24 0
-4 -9 -14 19 24 0
-4 -9 -14 19 -24 0
-4 -9 -14 -19 24 0
-4 -9 -14 -19 -24 0
5 10 15 20 25 0
5 10 15 -20 -25 0
5 10 -15 20 -25 0
5 10 -15 -20 25 0
5 10 -15 -20 -25 0
5 -10 15 20 -25 0
5 -10 15 -20 25 0
5 -10 15 -20 -25 0
5 -10 -15 20 25 0
5 -10 -15 20 -25 0
5 -10 -15 -20 25 0
5 -10 -15 -20 -25 0
-5 10 15 20 -25 0
-5 10 15 -20 25 0
-5 10 15 -20 -25 0
-5 10 -15 20 25 0
-5 10 -15 20 -25 0
-5 10 -15 -20 25 0
-5 10 -15 -20 -25 0
-5 -10 15 20 25 0
-5 -10 15 20 -25 0
-5 -10 15 -20 25 0
-5 -10 15 -20 -25 0
-5 -10 -15 20 25 0
-5 -10 -15 20 -25 0
-5 -10 -15 -20 25 0
-5 -10 -15 -20 -25 0
26 31 36 41 46 0
26 31 36 -41 -46 0
26 31 -36 41 -46 0
26 31 -36 -41 46 0
26 31 -36 -41 -46 0
26 -31 36 41 -46 0
26 -31 36 -41 46 0
26 -31 36 -41 -46 0
26 -31 -36 41 46 0
26 -31 -36 41 -46 0
26 -31 -36 -41 46 0
26 -31 -36 -41 -46 0
-26 31 36 41 -46 0
-26 31 36 -41 46 0
-26 31 36 -41 -46 0
-26 31 -36 41 46 0
-26 31 -36 41 -46 0
-26 31 -36 -41 46 0
-26 31 -36 -41 -46 0
-26 -31 36 41 46 0
-26 -31 36 41 -46 0
-26 -31 36 -41 46 0
-26 -31 36 -41 -46 0
-26 -31 -36 41 46 0
-26 -31 -36 41 -46 0
-26 -31 -36 -41 46 0
-26 -31 -36 -41 -46 0
27 32 37 42 47 0
27 32 37 -42 -47 0
27 32 -37 42 -47 0
27 32 -37 -42 47 0
27 32 -37 -42 -47 0
27 -32 37 42 -47 0
27 -32 37 -42 47 0
27 -32 37 -42 -47 0
27 -32 -37 42 47 0
27 -32 -37 42 -47 0
27 -32 -37 -42 47 0
27 -32 -37 -42 -47 0
-27 32 37 42 -47 0
-27 32 37 -42 47 0
-27 32 37 -42 -47 0
-27 32 -37 42 47 0
-27 32 -37 42 -47 0
-27 32 -37 -42 47 0
-27 32 -37 -42 -47 0
-27 -32 37 42 47 0
-27 -32 37 42 -47 0
-27 -32 37 -42 47 0
-27 -32 37 -42 -47 0
-27 -32 -37 42 47 0
-27 -32 -37 42 -47 0
-27 -32 -37 -42 47 0
-27 -32 -37 -42 -47 0
28 33 38 43 48 0
28 33 38 -43 -48 0
28 33 -38 43 -48 0
28 33 -38 -43 48 0
28 33 -38 -43 -48 0
28 -33 38 43 -48 0
28 -33 38 -43 48 0
28 -33 38 -43 -48 0
28 -33 -38 43 48 0
28 -33 -38 43 -48 0
28 -33 -38 -43 48 0
28 -33 -38 -43 -48 0
-28 33 38 43 -48 0
-28 33 38 -43 48 0
-28 33 38 -43 -48 0
-28 33 -38 43 48 0
-28 33 -38 43 -48 0
-28 33 -38 -43 48 0
-28 33 -38 -43 -48 0
-28 -33 38 43 48 0
-28 -33 38 43 -48 0
-28 -33 38 -43 48 0
-28 -33 38 -43 -48 0
-28 -33 -38 43 48 0
-28 -33 -38 43 -48 0
-28 -33 -38 -43 48 0
-28 -33 -38 -43 -48 0
29 34 39 44 49 0
29 34 39 -44 -49 0
29 34 -39 44 -49 0
29 34 -39 -44 49 0
29 34 -39 -44 -49 0
29 -34 39 44 -49 0
29 -34 39 -44 49 0
29 -34 39 -44 -49 0
29 -34 -39 44 49 0
29 -34 -39 44 -49 0
29 -34 -39 -44 49 0
29 -34 -39 -44 -49 0
-29 34 39 44 -49 0
-29 34 39 -44 49 0
-29 34 39 -44 -49 0
-29 34 -39 44 49 0
-29 34 -39 44 -49 0
-29 34 -39 -44 49 0
-29 34 -39 -44 -49 0
-29 -34 39 44 49 0
-29 -34 39 44 -49 0
-29 -34 39 -44 49 0
-29 -34 39 -44 -49 0
-29 -34 -39 44 49 0
-29 -34 -39 44 -49 0
-29 -34 -39 -44 49 0
-29 -34 -39 -44 -49 0
30 35 40 45 50 0
30 35 40 -45 -50 0
30 35 -40 45 -50 0
30 35 -40 -45 50 0
30 35 -40 -45 -50 0
30 -35 40 45 -50 0
30 -35 40 -45 50 0
30 -35 40 -45 -50 0
30 -35 -40 45 50 0
30 -35 -40 45 -50 0
30 -35 -40 -45 50 0
30 -35 -40 -45 -50 0
-30 35 40 45 -50 0
-30 35 40 -45 50 0
-30 35 40 -45 -50 0
-30 35 -40 45 50 0
-30 35 -40 45 -50 0
-30 35 -40 -45 50 0
-30 35 -40 -45 -50 0
-30 -35 40 45 50 0
-30 -35 40 45 -50 0
-30 -35 40 -45 50 0
-30 -35 40 -45 -50 0
-30 -35 -40 45 50 0
-30 -35 -40 45 -50 0
-30 -35 -40 -45 50 0
-30 -35 -40 -45 -50 0
51 56 61 66 71 0
51 56 61 -66 -71 0
51 56 -61 66 -71 0
51 56 -61 -66 71 0
51 56 -61 -66 -71 0
51 -56 61 66 -71 0
51 -56 61 -66 71 0
51 -56 61 -66 -71 0
51 -56 -61 66 71 0
51 -56 -61 66 -71 0
51 -56 -61 -66 71 0
51 -56 -61 -66 -71 0
-51 56 61 66 -71 0
-51 56 61 -66 71 0
-51 56 61 -66 -71 0
-51 56 -61 66 71 0
-51 56 -61 66 -71 0
-51 56 -61 -66 71 0
-51 56 -61 -66 -71 0
-51 -56 61 66 71 0
-51 -56 61 66 -71 0
-51 -56 61 -66 71 0
-51 -56 61 -66 -71 0
-51 -56 -61 66 71 0
-51 -56 -61 66 -71 0
-51 -56 -61 -66 71 0
-51 -56 -61 -66 -71 0
52 57 62 67 72 0
52 57 62 -67 -72 0
52 57 -62 67 -72 0
52 57 -62 -67 72 0
52 57 -62 -67 -72 0
52 -57 62 67 -72 0
52 -57 62 -67 72 0
52 -57 62 -67 -72 0
52 -57 -62 67 72 0
52 -57 -62 67 -72 0
52 -57 -62 -67 72 0
52 -57 -62 -67 -72 0
-52 57 62 67 -72 0
-52 57 62 -67 72 0
-52 57 62 -67 -72 0
-52 57 -62 67 72 0
-52 57 -62 67 -72 0
-52 57 -62 -67 72 0
-52 57 -62 -67 -72 0
-52 -57 62 67 72 0
-52 -57 62 67 -72 0
-52 -57 62 -67 72 0
-52 -57 62 -67 -72 0
-52 -57 -62 67 72 0
-52 -57 -62 67 -72 0
-52 -57 -62 -67 72 0
-52 -57 -62 -67 -72 0
53 58 63 68 73 0
53 58 63 -68 -73 0
53 58 -63 68 -73 0
53 58 -63 -68 73 0
53 58 -63 -68 -73 0
53 -58 63 68 -73 0
53 -58 63 -68 73 0
53 -58 63 -68 -73 0
53 -58 -63 68 73 0
53 -58 -63 68 -73 0
53 -58 -63 -68 73 0
53 -58 -63 -68 -73 0
-53 58 63 68 -73 0
-53 58 63 -68 73 0
-53 58 63 -68 -73 0
-53 58 -63 68 73 0
-53 58 -63 68 -73 0
-53 58 -63 -68 73 0
-53 58 -63 -68 -73 0
-53 -58 63 68 73 0
-53 -58 63 68 -73 0
-53 -58 63 -68 73 0
-53 -58 63 -68 -73 0
-53 -58 -63 68 73 0
-53 -58 -63 68 -73 0
-53 -58 -63 -68 73 0
-53 -58 -63 -68 -73 0
54 59 64 69 74 0
54 59 64 -69 -74 0
54 59 -64 69 -74 0
54 59 -64 -69 74 0
54 59 -64 -69 -74 0
54 -59 64 69 -74 0
54 -59 64 -69 74 0
54 -59 64 -69 -74 0
54 -59 -64 69 74 0
54 -59 -64 69 -74 0
54 -59 -64 -69 74 0
54 -59 -64 -69 -74 0
-54 59 64 69 -74 0
-54 59 64 -69 74 0
-54 59 64 -69 -74 0
-54 59 -64 69 74 0
-54 59 -64 69 -74 0
-54 59 -64 -69 74 0
-54 59 -64 -69 -74 0
-54 -59 64 69 74 0
-54 -59 64 69 -74 0
-54 -59 64 -69 74 0
-54 -59 64 -69 -74 0
-54 -59 -64 69 74 0
-54 -59 -64 69 -74 0
-54 -59 -64 -69 74 0
-54 -59 -64 -69 -74 0
55 60 65 70 75 0
55 60 65 -70 -75 0
55 60 -65 70 -75 0
55 60 -65 -70 75 0
55 60 -65 -70 -75 0
55 -60 65 70 -75 0
55 -60 65 -70 75 0
55 -60 65 -70 -75 0
55 -60 -65 70 75 0
55 -60 -65 70 -75 0
55 -60 -65 -70 75 0
55 -60 -65 -70 -75 0
-55 60 65 70 -75 0
-55 60 65 -70 75 0
-55 60 65 -70 -75 0
-55 60 -65 70 75 0
-55 60 -65 70 -75 0
-55 60 -65 -70 75 0
-55 60 -65 -70 -75 0
-55 -60 65 70 75 0
-55 -60 65 70 -75 0
-55 -60 65 -70 75 0
-55 -60 65 -70 -75 0
-55 -60 -65 70 75 0
-55 -60 -65 70 -75 0
-55 -60 -65 -70 75 0
-55 -60 -65 -70 -75 0
76 81 86 91 96 0
76 81 86 -91 -96 0
76 81 -86 91 -96 0
76 81 -86 -91 96 0
76 81 -86 -91 -96 0
76 -81 86 91 -96 0
76 -81 86 -91 96 0
76 -81 86 -91 -96 0
76 -81 -86 91 96 0
76 -81 -86 91 -96 0
76 -81 -86 -91 96 0
76 -81 -86 -91 -96 0
-76 81 86 91 -96 0
-76 81 86 -91 96 0
-76 81 86 -91 -96 0
-76 81 -86 91 96 0
-76 81 -86 91 -96 0
-76 81 -86 -91 96 0
-76 81 -86 -91 -96 0
-76 -81 86 91 96 0
-76 -81 86 91 -96 0
-76 -81 86 -91 96 0
-76 -81 86 -91 -96 0
-76 -81 -86 91 96 0
-76 -81 -86 91 -96 0
-76 -81 -86 -91 96 0
-76 -81 -86 -91 -96 0
77 82 87 92 97 0
77 82 87 -92 -97 0
77 82 -87 92 -97 0
77 82 -87 -92 97 0
77 82 -87 -92 -97 0
77 -82 87 92 -97 0
77 -82 87 -92 97 0
77 -82 87 -92 -97 0
77 -82 -87 92 97 0
77 -82 -87 92 -97 0
77 -82 -87 -92 97 0
77 -82 -87 -92 -97 0
-77 82 87 92 -97 0
-77 82 87 -92 97 0
-77 82 87 -92 -97 0
-77 82 -87 92 97 0
-77 82 -87 92 -97 0
-77 82 -87 -92 97 0
-77 82 -87 -92 -97 0
-77 -82 87 92 97 0
-77 -82 87 92 -97 0
-77 -82 87 -92 97 0
-77 -82 87 -92 -97 0
-77 -82 -87 92 97 0
-77 -82 -87 92 -97 0
-77 -82 -87 -92 97 0
-77 -82 -87 -92 -97 0
78 83 88 93 98 0
78 83 88 -93 -98 0
78 83 -88 93 -98 0
78 83 -88 -93 98 0
78 83 -88 -93 -98 0
78 -83 88 93 -98 0
78 -83 88 -93 98 0
78 -83 88 -93 -98 0
78 -83 -88 93 98 0
78 -83 -88 93 -98 0
78 -83 -88 -93 98 0
78 -83 -88 -93 -98 0
-78 83 88 93 -98 0
-78 83 88 -93 98 0
-78 83 88 -93 -98 0
-78 83 -88 93 98 0
-78 83 -88 93 -98 0
-78 83 -88 -93 98 0
-78 83 -88 -93 -98 0
-78 -83 88 93 98 0
-78 -83 88 93 -98 0
-78 -83 88 -93 98 0
-78 -83 88 -93 -98 0
-78 -83 -88 93 98 0
-78 -83 -88 93 -98 0
-78 -83 -88 -93 98 0
-78 -83 -88 -93 -98 0
79 84 89 94 99 0
79 84 89 -94 -99 0
79 84 -89 94 -99 0
79 84 -89 -94 99 0
79 84 -89 -94 -99 0
79 -84 89 94 -99 0
79 -84 89 -94 99 0
79 -84 89 -94 -99 0
79 -84 -89 94 99 0
79 -84 -89 94 -99 0
79 -84 -89 -94 99 0
79 -84 -89 -94 -99 0
-79 84 89 94 -99 0
-79 84 89 -94 99 0
-79 84 89 -94 -99 0
-79 84 -89 94 99 0
-79 84 -89 94 -99 0
-79 84 -89 -94 99 0
-79 84 -89 -94 -99 0
-79 -84 89 94 99 0
-79 -84 89 94 -99 0
-79 -84 89 -94 99 0
-79 -84 89 -94 -99 0
-79 -84 -89 94 99 0
-79 -84 -89 94 -99 0
-79 -84 -89 -94 99 0
-79 -84 -89 -94 -99 0
80 85 90 95 100 0
80 85 90 -95 -100 0
80 85 -90 95 -100 0
80 85 -90 -95 100 0
80 85 -90 -95 -100 0
80 -85 90 95 -100 0
80 -85 90 -95 100 0
80 -85 90 -95 -100 0
80 -85 -90 95 100 0
80 -85 -90 95 -100 0
80 -85 -90 -95 100 0
80 -85 -90 -95 -100 0
-80 85 90 95 -100 0
-80 85 90 -95 100 0
-80 85 90 -95 -100 0
-80 85 -90 95 100 0
-80 85 -90 95 -100 0
-80 85 -90 -95 100 0
-80 85 -90 -95 -100 0
-80 -85 90 95 100 0
-80 -85 90 95 -100 0
-80 -85 90 -95 100 0
-80 -85 90 -95 -100 0
-80 -85 -90 95 100 0
-80 -85 -90 95 -100 0
-80 -85 -90 -95 100 0
-80 -85 -90 -95 -100 0
101 106 111 116 121 0
101 106 111 -116 -121 0
101 106 -111 116 -121 0
101 106 -111 -116 121 0
101 106 -111 -116 -121 0
101 -106 111 116 -121 0
101 -106 111 -116 121 0
101 -106 111 -116 -121 0
101 -106 -111 116 121 0
101 -106 -111 116 -121 0
101 -106 -111 -116 121 0
101 -106 -111 -116 -121 0
-101 106 111 116 -121 0
-101 106 111 -116 121 0
-101 106 111 -116 -121 0
-101 106 -111 116 121 0
-101 106 -111 116 -121 0
-101 106 -111 -116 121 0
-101 106 -111 -116 -121 0
-101 -106 111 116 121 0
-101 -106 111 116 -121 0
-101 -106 111 -116 121 0
-101 -106 111 -116 -121 0
-101 -106 -111 116 121 0
-101 -106 -111 116 -121 0
-101 -106 -111 -116 121 0
-101 -106 -111 -116 -121 0
102 107 112 117 122 0
102 107 112 -117 -122 0
102 107 -112 117 -122 0
102 107 -112 -117 122 0
102 107 -112 -117 -122 0
102 -107 112 117 -122 0
102 -107 112 -117 122 0
102 -107 112 -117 -122 0
102 -107 -112 117 122 0
102 -107 -112 117 -122 0
102 -107 -112 -117 122 0
102 -107 -112 -117 -122 0
-102 107 112 117 -122 0
-102 107 112 -117 122 0
-102 107 112 -117 -122 0
-102 107 -112 117 122 0
-102 107 -112 117 -122 0
-102 107 -112 -117 122 0
-102 107 -112 -117 -122 0
-102 -107 112 117 122 0
-102 -107 112 117 -122 0
-102 -107 112 -117 122 0
-102 -107 112 -117 -122 0
-102 -107 -112 117 122 0
-102 -107 -112 117 -122 0
-102 -107 -112 -117 122 0
-102 -107 -112 -117 -122 0
103 108 113 118 123 0
103 108 113 -118 -123 0
103 108 -113 118 -123 0
103 108 -113 -118 123 0
103 108 -113 -118 -123 0
103 -108 113 118 -123 0
103 -108 113 -118 123 0
103 -108 113 -118 -123 0
103 -108 -113 118 123 0
103 -108 -113 118 -123 0
103 -108 -113 -118 123 0
103 -108 -113 -118 -123 0
-103 108 113 118 -123 0
-103 108 113 -118 123 0
-103 108 113 -118 -123 0
-103 108 -113 118 123 0
-103 108 -113 118 -123 0
-103 108 -113 -118 123 0
-103 108 -113 -118 -123 0
-103 -108 113 118 123 0
-103 -108 113 118 -123 0
-103 -108 113 -118 123 0
-103 -108 113 -118 -123 0
-103 -108 -113 118 123 0
-103 -108 -113 118 -123 0
-103 -108 -113 -118 123 0
-103 -108 -113 -118 -123 0
104 109 114 119 124 0
104 109 114 -119 -124 0
104 109 -114 119 -124 0
104 109 -114 -119 124 0
104 109 -114 -119 -124 0
104 -109 114 119 -124 0
104 -109 114 -119 124 0
104 -109 114 -119 -124 0
104 -109 -114 119 124 0
104 -109 -114 119 -124 0
104 -109 -114 -119 124 0
104 -109 -114 -119 -124 0
-104 109 114 119 -124 0
-104 109 114 -119 124 0
-104 109 114 -119 -124 0
-104 109 -114 119 124 0
-104 109 -114 119 -124 0
-104 109 -114 -119 124 0
-104 109 -114 -119 -124 0
-104 -109 114 119 124 0
-104 -109 114 119 -124 0
-104 -109 114 -119 124 0
-104 -109 114 -119 -124 0
-104 -109 -114 119 124 0
-104 -109 -114 119 -124 0
-104 -109 -114 -119 124 0
-104 -109 -114 -119 -124 0
105 110 115 120 125 0
105 110 115 -120 -125 0
105 110 -115 120 -125 0
105 110 -115 -120 125 0
105 110 -115 -120 -125 0
105 -110 115 120 -125 0
105 -110 115 -120 125 0
105 -110 115 -120 -125 0
105 -110 -115 120 125 0
105 -110 -115 120 -125 0
105 -110 -115 -120 125 0
105 -110 -115 -120 -125 0
-105 110 115 120 -125 0
-105 110 115 -120 125 0
-105 110 115 -120 -125 0
-105 110 -115 120 125 0
-105 110 -115 120 -125 0
-105 110 -115 -120 125 0
-105 110 -115 -120 -125 0
-105 -110 115 120 125 0
-105 -110 115 120 -125 0
-105 -110 115 -120 125 0
-105 -110 115 -120 -125 0
-105 -110 -115 120 125 0
-105 -110 -115 120 -125 0
-105 -110 -115 -120 125 0
-105 -110 -115 -120 -125 0
